-99 -99 000 000 000 000 000 000 -99 -99 -99 000 000 000 000 000 -99 -99 -99 -99 -99 000 000 000 000 000 001 001 006 015 033
-99 -99 -99 000 000 000 000 000 000 000 000 000 000 000 000 000 -99 -99 -99 -99 -99 000 000 000 000 000 000 000 004 011 016
-99 000 000 000 000 000 000 000 000 000 -99 000 000 -99 000 000 -99 -99 -99 000 -99 000 000 000 000 000 000 000 000 004 006
000 000 000 000 000 000 000 -99 000 000 -99 000 000 -99 -99 000 -99 -99 -99 000 000 000 000 000 000 -99 -99 000 000 001 001
000 000 000 000 000 000 000 000 000 000 -99 000 000 -99 -99 -99 -99 -99 -99 -99 000 000 000 000 000 000 -99 -99 -99 000 000
000 000 000 000 000 000 000 000 000 000 -99 000 000 -99 -99 -99 -99 000 -99 -99 000 000 000 000 000 -99 -99 -99 -99 000 000
000 000 000 000 000 000 000 000 000 000 000 000 000 000 000 -99 -99 000 -99 -99 -99 000 000 -99 000 -99 -99 -99 -99 -99 -99
000 000 000 000 000 000 000 000 000 000 000 000 000 000 000 000 -99 000 -99 -99 -99 -99 000 -99 000 -99 -99 -99 -99 -99 000
000 000 000 000 000 000 000 000 000 000 000 000 000 -99 000 000 000 000 -99 -99 000 -99 -99 -99 000 -99 000 000 000 000 000
000 000 000 000 000 000 000 000 000 000 000 000 000 -99 000 000 000 000 000 000 000 000 -99 000 000 000 000 000 000 000 000
000 000 000 000 000 000 000 000 000 000 000 000 000 -99 000 000 000 000 000 000 -99 000 -99 000 000 000 000 000 000 000 000
000 000 000 000 000 000 000 000 000 000 000 000 000 000 -99 000 000 000 000 000 000 000 -99 000 000 000 000 001 001 000 000
000 000 000 000 000 000 000 000 000 000 000 000 000 -99 -99 000 000 000 000 000 -99 000 -99 000 000 000 000 000 001 000 000
000 000 000 000 000 000 000 000 000 000 000 000 000 000 000 000 000 000 000 000 -99 000 -99 000 000 000 000 000 001 001 001
000 000 -99 000 000 000 000 000 000 000 000 000 000 000 000 000 000 000 000 000 -99 000 -99 000 000 001 000 000 001 006 002
000 -99 000 000 000 000 000 000 000 000 000 000 000 000 000 000 000 000 000 -99 -99 000 -99 000 000 000 001 001 003 021 012
000 000 000 000 000 000 000 000 000 000 000 000 000 000 000 000 000 000 000 -99 000 000 000 -99 000 000 001 002 003 014 029
000 000 000 -99 000 000 000 000 000 000 000 000 000 000 000 000 000 000 000 000 000 000 000 -99 000 000 001 003 004 023 039
000 000 000 000 000 000 000 000 000 000 000 001 000 000 000 000 000 000 000 000 000 000 000 -99 -99 000 001 003 008 024 062
000 000 000 000 000 000 000 000 000 001 001 001 001 000 000 000 000 000 000 000 000 000 000 -99 -99 000 001 003 010 018 069
000 000 000 000 000 000 000 000 000 001 001 001 001 000 000 000 000 000 000 000 000 000 000 -99 001 001 001 004 007 021 075
000 000 000 000 000 000 000 000 000 001 001 001 001 000 000 000 000 000 000 000 000 000 000 -99 002 002 002 004 010 019 052
000 000 000 000 000 000 000 000 000 001 001 001 001 000 000 000 000 000 000 000 000 000 000 -99 002 003 004 007 014 025 034
000 000 000 000 000 000 000 000 001 001 002 002 001 000 000 000 000 000 000 000 000 000 000 -99 002 003 -99 012 015 035 033
000 000 000 000 000 000 000 000 000 001 001 001 001 001 000 000 000 000 000 000 000 000 000 -99 -99 -99 -99 012 017 034 042
000 000 000 000 000 000 000 000 000 000 001 001 001 001 000 000 000 000 000 000 000 000 000 -99 -99 -99 -99 -99 014 021 021
000 000 000 000 000 000 000 000 000 001 001 001 000 001 000 001 001 001 000 000 000 000 000 -99 -99 -99 -99 -99 014 020 019
000 000 000 000 000 000 000 000 000 001 001 001 002 001 001 002 001 001 001 000 000 000 000 -99 -99 -99 -99 -99 010 011 013
000 000 000 000 000 000 000 000 000 001 001 002 002 001 001 003 003 002 001 001 000 001 -99 -99 -99 -99 -99 -99 010 006 008
000 000 000 000 000 000 000 000 000 000 002 002 002 003 002 004 004 005 001 001 001 002 -99 -99 -99 -99 -99 -99 -99 006 007
000 000 000 000 000 000 000 000 000 000 002 004 003 002 003 002 004 005 003 002 002 005 001 001 001 002 -99 -99 -99 -99 005
000 000 000 000 000 000 000 000 000 000 001 003 003 003 002 003 002 004 003 003 003 004 004 001 001 002 -99 -99 003 003 004
000 000 000 000 000 000 000 000 000 000 000 002 003 002 003 003 002 004 003 004 005 005 007 001 002 004 004 003 003 004 003
000 000 000 000 000 000 000 000 000 000 001 002 002 004 005 003 003 004 005 004 006 005 008 004 002 006 006 006 005 005 005
000 000 000 000 000 000 000 000 000 001 001 001 002 004 004 003 003 003 004 003 008 006 011 007 005 010 014 009 009 006 006
000 000 000 000 000 000 000 000 000 000 001 001 002 006 004 003 002 002 003 003 007 010 015 011 023 031 021 012 009 007 001
000 000 000 000 000 000 000 000 000 000 001 001 003 006 003 002 002 002 004 004 011 018 017 015 030 028 029 011 007 003 000
001 000 000 000 000 002 001 000 000 000 001 002 004 006 003 003 003 004 003 005 009 022 017 017 028 037 035 013 016 004 001
003 001 000 000 000 002 001 000 000 001 003 005 006 006 003 007 009 007 004 007 013 031 039 023 039 046 054 034 023 016 003
003 001 001 000 000 002 001 000 000 000 002 004 010 004 003 005 010 009 007 008 034 037 035 031 046 069 066 041 041 045 018
001 001 002 000 001 002 001 001 000 000 002 006 008 004 004 005 010 009 010 016 028 048 056 043 052 036 057 037 039 089 031
001 001 001 000 003 003 001 001 001 000 002 002 006 006 005 005 026 024 009 019 025 044 057 037 046 016 011 006 005 021 027
001 001 001 000 003 002 000 003 004 002 002 003 005 006 004 007 041 041 012 040 058 055 047 034 012 009 003 002 001 009 008
000 000 000 000 001 001 000 004 008 006 010 006 005 006 006 011 052 027 017 024 029 055 029 012 005 007 000 003 024 014 002
000 000 000 000 000 000 000 004 007 007 014 018 005 003 006 017 021 029 021 016 017 040 013 004 002 000 000 003 022 018 001
000 000 000 000 000 000 000 001 004 008 012 013 008 004 006 007 018 053 008 011 009 005 002 001 000 000 000 -99 -99 -99 000
000 -99 000 000 000 000 000 001 002 007 008 008 009 004 004 004 017 062 013 006 002 001 001 000 000 000 -99 -99 -99 000 000
-99 -99 -99 000 000 000 000 001 005 006 004 006 005 002 002 003 017 027 035 006 000 000 000 000 000 000 -99 -99 000 000 -99
-99 -99 -99 000 000 000 000 001 005 006 003 004 004 002 001 003 016 031 054 004 000 000 -99 000 000 000 -99 -99 000 -99 -99
-99 -99 -99 -99 000 000 000 003 014 006 002 007 012 006 001 003 007 048 050 002 000 -99 000 000 000 000 -99 -99 000 000 -99
-99 -99 -99 -99 -99 000 000 008 012 014 013 010 020 011 003 003 031 116 006 000 -99 -99 -99 000 000 000 -99 000 000 000 -99
-99 -99 -99 -99 -99 000 000 005 010 035 048 037 022 016 002 004 062 042 001 000 000 -99 -99 -99 -99 -99 -99 -99 -99 -99 -99
-99 -99 -99 -99 -99 000 000 001 006 039 044 017 009 007 007 010 047 005 000 000 000 -99 -99 -99 -99 -99 -99 -99 -99 -99 -99
-99 -99 -99 -99 -99 -99 001 002 002 014 009 006 006 005 004 009 012 000 000 000 -99 -99 -99 -99 -99 -99 -99 -99 -99 -99 -99
-99 -99 -99 -99 -99 -99 -99 000 000 002 001 000 001 002 000 003 001 000 000 -99 -99 -99 -99 -99 -99 -99 -99 -99 -99 -99 -99
